TOUR_SECTION
76
106
66
83
132
61
81
153
148
3
109
50
56
39
89
115
182
11
117
172
74
20
192
142
110
78
171
155
87
92
10
125
58
150
48
144
161
2
111
75
25
40
119
77
120
183
79
188
29
162
122
190
160
130
37
163
45
35
6
154
113
46
9
114
108
62
84
69
23
71
126
67
127
68
36
121
165
4
159
131
158
13
181
7
116
112
93
141
17
137
54
49
99
15
100
44
19
185
5
38
41
166
22
169
124
184
85
187
174
176
139
1
196
151
197
73
95
200
53
80
195
52
178
21
59
51
157
179
167
103
102
105
24
97
134
91
14
60
27
173
64
133
177
123
90
128
88
28
33
98
32
101
16
34
30
31
70
12
18
180
194
43
57
191
26
42
82
147
55
156
149
135
136
168
193
104
47
199
143
118
107
164
138
65
86
145
94
189
146
96
175
140
186
198
152
170
72
63
129
8
-1
EOF